webassembly/ejemplos_dzn/15/folder15_json_66.dzn
TERM = { '.', 's(2)', 's(5)', 's(4)', 'in_1', 'local_0', 'in_2', 'in_3', 's(6)', 's(1)', 's(0)', 's(7)', 's(3)', 'in_0'};
null = '.';
s = 15;
n = 9;
ndeps = 6;
max_registers_sz = 4;
NR = 1;
registers = [|'local_0', 's(3)'|];
dependencies = [|'i32.load8_u_2', 'i32.store8_3', |'i32.store8_3', 'i32.load8_u_6', |'i32.store8_3', 'i32.load16_s_7', |'i32.store8_3', 'i32.load8_s_9', |'i32.store8_3', 'i32.load_13', |'i32.store8_3', 'i32.load8_s_14'|];
GET_ENUM = { GET1, GET2, GET3, GET4, GET5};
SET_ENUM = { SET1, SET2, SET3, SET4, SET5};
TEE_ENUM = { TEE1, TEE2, TEE3, TEE4, TEE5};
N = 9;
OP = { 'i32.sub_0', 'i32.load8_u_2', 'i32.store8_3', 'i32.load8_u_6', 'i32.load16_s_7', 'i32.load8_s_9', 'i32.add_0', 'i32.load_13', 'i32.load8_s_14' };
in_ops = [2, 1, 2, 1, 1, 1, 2, 1, 1 ];
out_ops = [1, 1, 0, 1, 1, 1, 1, 1, 1 ];
in1 = ['in_2', 'in_0', 's(0)', 'in_0', 's(2)', 's(3)', 's(3)', 's(5)', 's(6)' ];
in2 = ['in_3', '.', 'in_1', '.', '.', '.', 's(3)', '.', '.' ];
in3 = ['.', '.', '.', '.', '.', '.', '.', '.', '.' ];
out1 = ['s(1)', 's(0)', '.', 's(2)', 's(3)', 's(4)', 's(5)', 's(6)', 's(7)' ];
out2 = ['.', '.', '.', '.', '.', '.', '.', '.', '.' ];
out3 = ['.', '.', '.', '.', '.', '.', '.', '.', '.' ];
comm = [false, false, false, false, false, false, true, false, false ];
gas = [1, 1, 1, 1, 1, 1, 1, 1, 1 ];
sz = [1, 1, 1, 1, 1, 1, 1, 1, 1 ];
stor = [false, false, true, false, false, false, false, false, false ];
lb = [ 1, 1, 1, 1, 1, 1, 1, 1, 1 ];
ub = [ 15, 15, 15, 15, 15, 15, 15, 15, 15 ];
startstack = [ 'in_0', 'in_1', 'in_2', 'in_3', null, null, null, null, null ];
endstack = [ 's(7)', 's(4)', 's(1)', null, null, null, null, null, null ];
