webassembly/ejemplos_results/folder15_json_66.txt
value = 15;
fgas = [1, 1, 1, 2, 1, 2, 1, 1, 2, 1, 1, 1, 2, 1, 1];
fsize = [1, 1, 1, 1, 1, 1, 1, 1, 1, 1, 1, 1, 1, 1, 1];
states = 
[|   in_0,   in_1,   in_2,   in_3, '.',    '.',    '.',    '.',    '.'
 | 's(2)',   in_0,   in_2,   in_3, '.',    '.',    '.',    '.',    '.'
 | 's(3)',   in_0,   in_2,   in_3, '.',    '.',    '.',    '.',    '.'
 |   in_0,   in_2,   in_3,    '.', '.',    '.',    '.',    '.',    '.'
 |   in_2,   in_3,    '.',    '.', '.',    '.',    '.',    '.',    '.'
 | 's(1)', 's(5)',    '.',    '.', '.',    '.',    '.',    '.', 's(1)'
 | 's(5)',    '.',    '.',    '.', '.',    '.',    '.', 's(1)',    '.'
 | 's(6)', 's(3)',    '.',    '.', '.',    '.',    '.', 's(1)',    '.'
 | 's(5)',   in_0,    '.',    '.', '.',    '.', 's(1)',    '.',    '.'
 |   in_0,    '.',    '.',    '.', '.', 's(1)',    '.',    '.',    '.'
 | 's(0)',   in_1,    '.',    '.', '.', 's(1)',    '.',    '.',    '.'
 | 's(3)',    '.',    '.', 's(1)', '.',    '.',    '.',    '.',    '.'
 | 's(4)', 's(5)',    '.', 's(1)', '.',    '.',    '.',    '.',    '.'
 | 's(5)',    '.', 's(1)',    '.', '.',    '.',    '.',    '.',    '.'
 | 's(6)',   in_0, 's(1)',    '.', '.',    '.',    '.',    '.',    '.'
 | 's(7)', 's(4)', 's(1)',    '.', '.',    '.',    '.',    '.',    '.'
 |];
register_states = 
[| local_0, '.', '.', '.', '.'
 | local_0, '.', '.', '.', '.'
 | local_0, '.', '.', '.', '.'
 |  's(3)', '.', '.', '.', '.'
 |  's(3)', '.', '.', '.', '.'
 |  's(3)', '.', '.', '.', '.'
 |  's(3)', '.', '.', '.', '.'
 |  's(3)', '.', '.', '.', '.'
 |  's(3)', '.', '.', '.', '.'
 |  's(3)', '.', '.', '.', '.'
 |  's(3)', '.', '.', '.', '.'
 |  's(3)', '.', '.', '.', '.'
 |  's(3)', '.', '.', '.', '.'
 |  's(3)', '.', '.', '.', '.'
 |  's(3)', '.', '.', '.', '.'
 |  's(3)', '.', '.', '.', '.'
 |];
program = [O('i32.load8_u_6'), O('i32.load16_s_7'), S(SET1), POP, O('i32.sub_0'), POP, O('i32.load_13'), O('i32.add_0'), POP, O('i32.load8_u_2'), O('i32.store8_3'), O('i32.load8_s_9'), POP, O('i32.load_13'), O('i32.load8_s_14')];
% time elapsed: 0.19 s
----------
value = 14;
fgas = [1, 1, 1, 1, 1, 1, 1, 1, 1, 1, 2, 1, 1, 2, 0];
fsize = [1, 1, 1, 1, 1, 1, 1, 1, 1, 1, 1, 1, 1, 1, 1];
states = 
[|   in_0,   in_1,   in_2,   in_3,    '.',    '.',    '.',    '.',    '.'
 | 's(0)',   in_1,   in_2,   in_3,    '.',    '.',    '.',    '.',    '.'
 |   in_2,   in_3,    '.',    '.',    '.',    '.',    '.',   in_0, 's(4)'
 | 's(1)',   in_0,    '.',    '.',    '.',    '.',   in_0, 's(4)', 's(1)'
 |   in_0,    '.',    '.',    '.',    '.',   in_0, 's(4)', 's(1)',    '.'
 | 's(2)', 's(1)',    '.',    '.',    '.',   in_0, 's(4)', 's(1)',    '.'
 | 's(3)', 's(5)',    '.',    '.',    '.',   in_0, 's(4)', 's(1)',    '.'
 | 's(5)',    '.',    '.',    '.',   in_0, 's(4)', 's(1)',    '.',    '.'
 | 's(6)', 's(3)',    '.',    '.',   in_0, 's(4)', 's(1)',    '.',    '.'
 | 's(3)',    '.',    '.',   in_0, 's(4)', 's(1)',    '.',    '.',    '.'
 | 's(4)', 's(6)',    '.',   in_0, 's(4)', 's(1)',    '.',    '.',    '.'
 | 's(6)',    '.',   in_0, 's(4)', 's(1)',    '.',    '.',    '.',    '.'
 | 's(7)', 's(3)',   in_0, 's(4)', 's(1)',    '.',    '.',    '.',    '.'
 | 's(5)', 's(7)', 's(4)', 's(1)',    '.',    '.',    '.',    '.',    '.'
 | 's(7)', 's(4)', 's(1)',    '.',    '.',    '.',    '.',    '.',    '.'
 | 's(7)', 's(4)', 's(1)',    '.',    '.',    '.',    '.',    '.',    '.'
 |];
register_states = 
[| local_0, '.', '.', '.', '.'
 | local_0, '.', '.', '.', '.'
 | local_0, '.', '.', '.', '.'
 | local_0, '.', '.', '.', '.'
 |  's(1)', '.', '.', '.', '.'
 |  's(1)', '.', '.', '.', '.'
 |  's(1)', '.', '.', '.', '.'
 |  's(3)', '.', '.', '.', '.'
 |  's(3)', '.', '.', '.', '.'
 |  's(3)', '.', '.', '.', '.'
 |  's(3)', '.', '.', '.', '.'
 |  's(3)', '.', '.', '.', '.'
 |  's(3)', '.', '.', '.', '.'
 |  's(3)', '.', '.', '.', '.'
 |  's(3)', '.', '.', '.', '.'
 |  's(3)', '.', '.', '.', '.'
 |];
program = [O('i32.load8_u_2'), O('i32.store8_3'), O('i32.sub_0'), S(SET1), O('i32.load8_u_6'), O('i32.load16_s_7'), S(SET1), O('i32.load_13'), G(GET1), O('i32.load8_s_9'), POP, O('i32.load8_s_14'), O('i32.add_0'), POP, NOP];
% time elapsed: 0.20 s
----------
value = 13;
fgas = [1, 1, 1, 1, 1, 1, 1, 1, 1, 1, 1, 1, 1, 0, 0];
fsize = [1, 1, 1, 1, 1, 1, 1, 1, 1, 1, 1, 1, 1, 1, 1];
states = 
[|   in_0,   in_1,   in_2, in_3,    '.',    '.',    '.',    '.',    '.'
 | 's(2)',   in_0,   in_2, in_3,    '.',    '.',    '.',    '.',    '.'
 | 's(3)',   in_0,   in_2, in_3,    '.',    '.',    '.',    '.',    '.'
 | 's(4)', 's(3)',   in_2, in_3,    '.',    '.',    '.',    '.',    '.'
 | 's(5)',   in_0,   in_3,  '.',    '.',    '.',    '.',    '.', 's(1)'
 | 's(6)',   in_2,   in_3,  '.',    '.',    '.',    '.',    '.', 's(1)'
 |   in_2,   in_3,    '.',  '.',    '.',    '.',    '.', 's(1)',    '.'
 | 's(1)', 's(2)',    '.',  '.',    '.',    '.', 's(1)',    '.',    '.'
 | 's(2)',    '.',    '.',  '.',    '.', 's(1)',    '.',    '.',    '.'
 | 's(3)',   in_0,    '.',  '.',    '.', 's(1)',    '.',    '.',    '.'
 |   in_0,    '.',    '.',  '.', 's(1)',    '.',    '.',    '.',    '.'
 | 's(0)',   in_1,    '.',  '.', 's(1)',    '.',    '.',    '.',    '.'
 | 's(6)',    '.', 's(1)',  '.',    '.',    '.',    '.',    '.',    '.'
 | 's(7)', 's(4)', 's(1)',  '.',    '.',    '.',    '.',    '.',    '.'
 | 's(7)', 's(4)', 's(1)',  '.',    '.',    '.',    '.',    '.',    '.'
 | 's(7)', 's(4)', 's(1)',  '.',    '.',    '.',    '.',    '.',    '.'
 |];
register_states = 
[| local_0, '.', '.', '.', '.'
 | local_0, '.', '.', '.', '.'
 | local_0, '.', '.', '.', '.'
 | local_0, '.', '.', '.', '.'
 | local_0, '.', '.', '.', '.'
 | local_0, '.', '.', '.', '.'
 |  's(6)', '.', '.', '.', '.'
 |  's(6)', '.', '.', '.', '.'
 |  's(1)', '.', '.', '.', '.'
 |  's(1)', '.', '.', '.', '.'
 |  's(3)', '.', '.', '.', '.'
 |  's(3)', '.', '.', '.', '.'
 |  's(3)', '.', '.', '.', '.'
 |  's(3)', '.', '.', '.', '.'
 |  's(3)', '.', '.', '.', '.'
 |  's(3)', '.', '.', '.', '.'
 |];
program = [O('i32.load8_u_6'), O('i32.load16_s_7'), O('i32.load8_s_9'), O('i32.add_0'), O('i32.load_13'), S(SET1), O('i32.sub_0'), S(SET1), O('i32.load16_s_7'), S(SET1), O('i32.load8_u_2'), O('i32.store8_3'), O('i32.load8_s_14'), NOP, NOP];
% time elapsed: 0.31 s
----------
value = 12;
fgas = [1, 1, 1, 1, 1, 1, 1, 1, 1, 1, 2, 1, 0, 0, 0];
fsize = [1, 1, 1, 1, 1, 1, 1, 1, 1, 1, 1, 1, 1, 1, 1];
states = 
[|   in_0,   in_1,   in_2,   in_3,    '.',    '.',    '.',    '.', '.'
 | 's(0)',   in_1,   in_2,   in_3,    '.',    '.',    '.',    '.', '.'
 |   in_2,   in_3,    '.',    '.',    '.',    '.',    '.', 's(1)', '.'
 | 's(1)', 's(3)',    '.',    '.',    '.',    '.', 's(1)',    '.', '.'
 | 's(5)',   in_0,    '.',    '.',    '.', 's(1)',    '.',    '.', '.'
 | 's(6)',   in_0,    '.',    '.',    '.', 's(1)',    '.',    '.', '.'
 |   in_0,    '.',    '.',    '.', 's(1)',    '.',    '.',    '.', '.'
 | 's(2)', 's(3)',    '.',    '.', 's(1)',    '.',    '.',    '.', '.'
 | 's(3)', 's(3)',    '.',    '.', 's(1)',    '.',    '.',    '.', '.'
 | 's(3)',    '.',    '.', 's(1)',    '.',    '.',    '.',    '.', '.'
 | 's(4)', 's(6)',    '.', 's(1)',    '.',    '.',    '.',    '.', '.'
 | 's(6)',    '.', 's(1)',    '.',    '.',    '.',    '.',    '.', '.'
 | 's(7)', 's(4)', 's(1)',    '.',    '.',    '.',    '.',    '.', '.'
 | 's(7)', 's(4)', 's(1)',    '.',    '.',    '.',    '.',    '.', '.'
 | 's(7)', 's(4)', 's(1)',    '.',    '.',    '.',    '.',    '.', '.'
 | 's(7)', 's(4)', 's(1)',    '.',    '.',    '.',    '.',    '.', '.'
 |];
register_states = 
[| local_0, '.', '.', '.', '.'
 | local_0, '.', '.', '.', '.'
 | local_0, '.', '.', '.', '.'
 | local_0, '.', '.', '.', '.'
 | local_0, '.', '.', '.', '.'
 | local_0, '.', '.', '.', '.'
 |  's(6)', '.', '.', '.', '.'
 |  's(6)', '.', '.', '.', '.'
 |  's(6)', '.', '.', '.', '.'
 |  's(3)', '.', '.', '.', '.'
 |  's(3)', '.', '.', '.', '.'
 |  's(3)', '.', '.', '.', '.'
 |  's(3)', '.', '.', '.', '.'
 |  's(3)', '.', '.', '.', '.'
 |  's(3)', '.', '.', '.', '.'
 |  's(3)', '.', '.', '.', '.'
 |];
program = [O('i32.load8_u_2'), O('i32.store8_3'), O('i32.sub_0'), O('i32.add_0'), O('i32.load_13'), S(SET1), O('i32.load8_u_6'), O('i32.load16_s_7'), S(SET1), O('i32.load8_s_9'), POP, O('i32.load8_s_14'), NOP, NOP, NOP];
% time elapsed: 0.33 s
----------
==========
% time elapsed: 0.36 s
% [value > 11]
